12 40 3 10
1 16 5 13 1 1 9 16 7 17 9 4 18 1 13 18 8 1 8 18 8 10 13 3 15 2 10 20 2 7 9 5 6 2 5 13 18 9 11 17 
11.39 13.73 14.4 12.55 2.55 8.95 5.19 6.34 8.69 4.88 3.73 11.63 8.2 1.86 3.01 10.42 9 8.38 12.51 0.87 14.04 13.74 7.04 3.12 5.31 6.83 14.29 3.51 9.18 15.06 7.7 14.54 15.2 0.67 3.44 1.23 15.07 4.15 12.45 10.48 
2 14.51 2.33 4.76 15.07 7.42 0.7 5.01 7.92 0.33 9.71 2.99 3 7.8 15.96 0.69 2.78 4.93 3.97 7.52 6.08 10.35 13.33 9.01 4.75 8.42 4.36 4.67 10.85 7.13 10.29 0.12 12.88 7.06 14.71 8.46 2.57 12.44 1.34 6.08 
4.5 15.01 13.97 2.94 6.58 5.93 5.8 1.16 5.92 5.76 7.34 15.77 12.02 11.15 12.65 5.66 11.98 8.09 11.33 15.57 12.46 10.55 2.45 12.54 5.32 8.95 9.15 0.22 6.96 1.4 4.06 13.9 12.03 5.54 7.21 12.43 3.17 7.03 14.21 15.42 
8 8 8 8 8 8 8 8 8 8 8 8 8 8 8 8 8 8 8 8 8 8 8 8 8 8 8 8 8 8 8 8 8 8 8 8 8 8 8 8 
15.96 0.85 1.42 1.45 7.28 9.68 11.43 7.56 10.53 5.1 9.37 7.64 2.38 4.54 10.56 9.73 3.93 14.71 3.12 10.74 14.41 8.14 15.76 11.53 12.84 9.13 9.97 6.09 12.23 10.1 3.25 7.86 10.84 7.23 11.64 7.07 0.94 4.74 9.62 14.19 
5.3 1.32 5.37 7.99 4.81 2.86 7.29 2.28 1.52 2.83 10.52 3.82 14.47 10.79 11.06 5.05 8.47 12.09 8 13.85 13.77 7.93 4.26 14.86 12.09 2.8 14.73 8.44 12.17 6.41 6.86 2.73 0.47 15.8 5.22 11.99 14.79 12.21 4.53 7.78 
1.69 7.06 11.65 9.77 10.23 2.61 10.51 3.85 15.26 15.6 14.98 1.61 12.2 14.37 0.65 9.09 10.07 0.77 12.13 7.06 14.91 9.34 11.67 10.72 15.07 12.8 5.38 14.24 9.14 3.63 12.83 3.95 5.38 14.85 5.11 13.95 13.21 14.38 7.2 13.71 
0.98 5.32 10.92 4.62 1.56 13.9 12.11 5.49 12.34 2.67 0.52 0.63 5.05 4.99 6.41 4.97 5.12 11.44 9.27 10.87 5.34 4.38 10.1 5.2 6.79 7.54 14.86 14.18 11.54 2.75 10.53 14.64 3.57 5.37 12.2 11.14 1.81 5.24 12.25 13.62 
4.54 8.15 2.75 6.23 8.88 11.1 6.99 9.28 6.17 0.36 13.55 5.37 2.65 1.45 15.67 14.11 7.69 4.92 9.33 9.66 11.67 0.69 3.12 12.77 13.08 1.53 2.58 4.17 14 7.44 1.71 12.72 0.37 11.22 9.91 12.66 4.57 15.3 7.43 4.61 
10.23 0.18 7.39 7.1 14.78 3.67 2.68 3.69 7.28 3.12 6.61 10.12 6.63 2.73 7.6 3.92 15.47 15.03 9.18 4.04 5.91 15.85 1.18 9.89 10.88 14.83 14.2 15.4 0.33 1.73 0.91 11.04 0.6 2.85 10.54 0.23 4.61 14.6 9.86 6.73 
11.45 15.33 5.67 11.43 15.92 3.03 7.6 9.21 11.43 14.97 8.08 12.06 1.64 7.37 3.5 5.69 14.52 6.61 8.02 10.81 1.79 15.36 6.11 8.48 11.75 7.05 1.46 7.24 8.29 7.4 0.34 3.41 4.31 4.19 15.81 1.42 12.17 8.34 2.9 8.99 
14.76 15.06 10.44 14.97 9.48 9.89 8.5 12.62 13.74 12.24 14.77 12.26 5.76 2.12 12.53 6.36 8.43 11.01 8.82 14.57 3.34 2.47 0.16 0.84 10.12 10.24 11.77 14.72 14.48 3.56 14.51 10.6 10.95 14.46 5.45 0.09 11.24 9.63 6.86 10.47 
1 1 1 1 1 1 1 1 1 1 1 1 1 1 1 1 1 1 1 1 1 1 1 1 1 1 1 1 1 1 1 1 1 1 1 1 1 1 1 1 
1 1 1 1 1 1 1 1 1 1 1 1 1 1 1 1 1 1 1 1 1 1 1 1 1 1 1 1 1 1 1 1 1 1 1 1 1 1 1 1 
1 1 1 1 1 1 1 1 1 1 1 1 1 1 1 1 1 1 1 1 1 1 1 1 1 1 1 1 1 1 1 1 1 1 1 1 1 1 1 1 
1 1 1 1 1 1 1 1 1 1 1 1 1 1 1 1 1 1 1 1 1 1 1 1 1 1 1 1 1 1 1 1 1 1 1 1 1 1 1 1 
1 1 1 1 1 1 1 1 1 1 1 1 1 1 1 1 1 1 1 1 1 1 1 1 1 1 1 1 1 1 1 1 1 1 1 1 1 1 1 1 
1 1 1 1 1 1 1 1 1 1 1 1 1 1 1 1 1 1 1 1 1 1 1 1 1 1 1 1 1 1 1 1 1 1 1 1 1 1 1 1 
1 1 1 1 1 1 1 1 1 1 1 1 1 1 1 1 1 1 1 1 1 1 1 1 1 1 1 1 1 1 1 1 1 1 1 1 1 1 1 1 
1 1 1 1 1 1 1 1 1 1 1 1 1 1 1 1 1 1 1 1 1 1 1 1 1 1 1 1 1 1 1 1 1 1 1 1 1 1 1 1 
1 1 1 1 1 1 1 1 1 1 1 1 1 1 1 1 1 1 1 1 1 1 1 1 1 1 1 1 1 1 1 1 1 1 1 1 1 1 1 1 
1 1 1 1 1 1 1 1 1 1 1 1 1 1 1 1 1 1 1 1 1 1 1 1 1 1 1 1 1 1 1 1 1 1 1 1 1 1 1 1 
1 1 1 1 1 1 1 1 1 1 1 1 1 1 1 1 1 1 1 1 1 1 1 1 1 1 1 1 1 1 1 1 1 1 1 1 1 1 1 1 
1 1 1 1 1 1 1 1 1 1 1 1 1 1 1 1 1 1 1 1 1 1 1 1 1 1 1 1 1 1 1 1 1 1 1 1 1 1 1 1 
0.01 0.01 0.01 0.01 0.01 0.01 0.01 0.01 0.01 0.01 0.01 0.01 0.01 0.01 0.01 0.01 0.01 0.01 0.01 0.01 0.01 0.01 0.01 0.01 0.01 0.01 0.01 0.01 0.01 0.01 0.01 0.01 0.01 0.01 0.01 0.01 0.01 0.01 0.01 0.01 
0.02 0.02 0.02 0.02 0.02 0.02 0.02 0.02 0.02 0.02 0.02 0.02 0.02 0.02 0.02 0.02 0.02 0.02 0.02 0.02 0.02 0.02 0.02 0.02 0.02 0.02 0.02 0.02 0.02 0.02 0.02 0.02 0.02 0.02 0.02 0.02 0.02 0.02 0.02 0.02 
0.03 0.03 0.03 0.03 0.03 0.03 0.03 0.03 0.03 0.03 0.03 0.03 0.03 0.03 0.03 0.03 0.03 0.03 0.03 0.03 0.03 0.03 0.03 0.03 0.03 0.03 0.03 0.03 0.03 0.03 0.03 0.03 0.03 0.03 0.03 0.03 0.03 0.03 0.03 0.03 
0.04 0.04 0.04 0.04 0.04 0.04 0.04 0.04 0.04 0.04 0.04 0.04 0.04 0.04 0.04 0.04 0.04 0.04 0.04 0.04 0.04 0.04 0.04 0.04 0.04 0.04 0.04 0.04 0.04 0.04 0.04 0.04 0.04 0.04 0.04 0.04 0.04 0.04 0.04 0.04 
0.125 0.125 0.125 0.125 0.125 0.125 0.125 0.125 0.125 0.125 0.125 0.125 0.125 0.125 0.125 0.125 0.125 0.125 0.125 0.125 0.125 0.125 0.125 0.125 0.125 0.125 0.125 0.125 0.125 0.125 0.125 0.125 0.125 0.125 0.125 0.125 0.125 0.125 0.125 0.125 
0.25 0.25 0.25 0.25 0.25 0.25 0.25 0.25 0.25 0.25 0.25 0.25 0.25 0.25 0.25 0.25 0.25 0.25 0.25 0.25 0.25 0.25 0.25 0.25 0.25 0.25 0.25 0.25 0.25 0.25 0.25 0.25 0.25 0.25 0.25 0.25 0.25 0.25 0.25 0.25 
0.375 0.375 0.375 0.375 0.375 0.375 0.375 0.375 0.375 0.375 0.375 0.375 0.375 0.375 0.375 0.375 0.375 0.375 0.375 0.375 0.375 0.375 0.375 0.375 0.375 0.375 0.375 0.375 0.375 0.375 0.375 0.375 0.375 0.375 0.375 0.375 0.375 0.375 0.375 0.375 
0.5 0.5 0.5 0.5 0.5 0.5 0.5 0.5 0.5 0.5 0.5 0.5 0.5 0.5 0.5 0.5 0.5 0.5 0.5 0.5 0.5 0.5 0.5 0.5 0.5 0.5 0.5 0.5 0.5 0.5 0.5 0.5 0.5 0.5 0.5 0.5 0.5 0.5 0.5 0.5 
0.625 0.625 0.625 0.625 0.625 0.625 0.625 0.625 0.625 0.625 0.625 0.625 0.625 0.625 0.625 0.625 0.625 0.625 0.625 0.625 0.625 0.625 0.625 0.625 0.625 0.625 0.625 0.625 0.625 0.625 0.625 0.625 0.625 0.625 0.625 0.625 0.625 0.625 0.625 0.625 
0.75 0.75 0.75 0.75 0.75 0.75 0.75 0.75 0.75 0.75 0.75 0.75 0.75 0.75 0.75 0.75 0.75 0.75 0.75 0.75 0.75 0.75 0.75 0.75 0.75 0.75 0.75 0.75 0.75 0.75 0.75 0.75 0.75 0.75 0.75 0.75 0.75 0.75 0.75 0.75 
0.875 0.875 0.875 0.875 0.875 0.875 0.875 0.875 0.875 0.875 0.875 0.875 0.875 0.875 0.875 0.875 0.875 0.875 0.875 0.875 0.875 0.875 0.875 0.875 0.875 0.875 0.875 0.875 0.875 0.875 0.875 0.875 0.875 0.875 0.875 0.875 0.875 0.875 0.875 0.875 
1 1 1 1 1 1 1 1 1 1 1 1 1 1 1 1 1 1 1 1 1 1 1 1 1 1 1 1 1 1 1 1 1 1 1 1 1 1 1 1 
